NAME : CON8-8.80815.tour
COMMENT : Cost = 0_80815
COMMENT : Found by LKH [Keld Helsgaun] Thu Sep 14 15:14:56 2017
TYPE : TOUR
DIMENSION : 59
TOUR_SECTION
1
43
37
38
25
5
56
51
44
3
10
42
53
50
49
16
27
20
19
54
41
24
39
35
12
57
36
46
32
30
40
59
29
45
33
18
14
2
31
11
6
17
58
28
26
13
7
23
52
4
22
15
55
8
34
47
21
9
48
-1
EOF
